\ENCODING=ISO-8859-1
\Problem name: IloCplex

Maximize
 obj: - 10 x11 - 152.5 x12 - 10 x14
Subject To
 c1:  x1 <= 0
 c2:  x2 <= 0
 c3:  x3 <= 0
 c4:  x4 <= 0
 c5:  x5 <= 0
 c6:  x6 <= 0
 c7:  x7 <= 0
 c8:  x8 <= 0
 c9:  x9 <= 0
 c10: x10 <= 0
 c11: 5 x11 + 5 x12 <= 20
 c12: - 100 x11 - 100 x12 - 5 x13 - 5 x14 <= 20
 c13: x11 + x12 + x13 + x14  = 1
Bounds
 0 <= x1 <= 1
 0 <= x2 <= 1
 0 <= x3 <= 1
 0 <= x4 <= 1
 0 <= x5 <= 1
 0 <= x6 <= 1
 0 <= x7 <= 1
 0 <= x8 <= 1
 0 <= x9 <= 1
 0 <= x10 <= 1
 0 <= x11 <= 1
 0 <= x12 <= 1
 0 <= x13 <= 1
 0 <= x14 <= 1
Binaries
 x1  x2  x3  x4  x5  x6  x7  x8  x9  x10  x11  x12  x13  x14 
End
